db/data/8922110061907217260232622182495724584.z3.out
-------------------
2500.306955894
